
******************************************************************************
This program contains Ipopt, a library for large-scale nonlinear optimization.
 Ipopt is released as open source code under the Eclipse Public License (EPL).
         For more information visit http://projects.coin-or.org/Ipopt
******************************************************************************

This is Ipopt version 3.12.6, running with linear solver ma57.

Number of nonzeros in equality constraint Jacobian...:        0
Number of nonzeros in inequality constraint Jacobian.:     7000
Number of nonzeros in Lagrangian Hessian.............:        0

Total number of variables............................:        4
                     variables with only lower bounds:        0
                variables with lower and upper bounds:        0
                     variables with only upper bounds:        0
Total number of equality constraints.................:        0
Total number of inequality constraints...............:     2000
        inequality constraints with only lower bounds:     1000
   inequality constraints with lower and upper bounds:        0
        inequality constraints with only upper bounds:     1000

iter    objective    inf_pr   inf_du lg(mu)  ||d||  lg(rg) alpha_du alpha_pr  ls
   0  1.2000000e+00 0.00e+00 1.99e+00  -1.0 0.00e+00    -  0.00e+00 0.00e+00   0
   1  1.3988601e+00 0.00e+00 9.87e-03  -1.0 1.99e-01    -  9.90e-01 1.00e+00f  1
   2  1.3016155e+00 0.00e+00 1.50e-09  -3.8 1.01e-01    -  1.00e+00 1.00e+00f  1
   3  6.0406187e-01 0.00e+00 6.46e-04  -5.7 1.22e+00    -  1.00e+00 5.73e-01f  1
   4  4.5109508e-01 0.00e+00 1.28e-01  -5.7 4.85e-01    -  6.67e-01 3.61e-01f  1
   5  3.1665809e-01 0.00e+00 6.96e-02  -5.7 3.28e-01    -  7.52e-01 5.38e-01f  1
   6  3.0451217e-01 0.00e+00 2.22e-01  -5.7 1.13e-01    -  4.98e-03 1.61e-01f  1
   7  2.9071617e-01 0.00e+00 4.19e-01  -5.7 9.03e-02    -  4.00e-03 2.30e-01f  1
   8  2.7241339e-01 0.00e+00 3.22e-01  -5.7 6.20e-02    -  3.55e-02 4.48e-01f  1
   9  2.7243793e-01 0.00e+00 5.94e-01  -5.7 1.11e-03    -  1.00e+00 4.82e-02f  3
iter    objective    inf_pr   inf_du lg(mu)  ||d||  lg(rg) alpha_du alpha_pr  ls
  10  2.7239276e-01 0.00e+00 1.84e-11  -5.7 4.52e-05    -  1.00e+00 1.00e+00f  1
  11  2.7237190e-01 0.00e+00 8.87e-02  -8.6 5.08e-05    -  1.00e+00 4.11e-01f  1
  12  2.7236231e-01 0.00e+00 7.60e-02  -8.6 1.44e-05    -  9.85e-01 8.30e-01f  1
  13  2.7236199e-01 0.00e+00 2.51e-14  -8.6 4.96e-07    -  1.00e+00 1.00e+00f  1

Number of Iterations....: 13

                                   (scaled)                 (unscaled)
Objective...............:   2.7236198829893937e-01    2.7236198829893937e-01
Dual infeasibility......:   2.5091040356528538e-14    2.5091040356528538e-14
Constraint violation....:   0.0000000000000000e+00    0.0000000000000000e+00
Complementarity.........:   3.4617075072839635e-09    3.4617075072839635e-09
Overall NLP error.......:   3.4617075072839635e-09    3.4617075072839635e-09


Number of objective function evaluations             = 17
Number of objective gradient evaluations             = 14
Number of equality constraint evaluations            = 0
Number of inequality constraint evaluations          = 17
Number of equality constraint Jacobian evaluations   = 0
Number of inequality constraint Jacobian evaluations = 14
Number of Lagrangian Hessian evaluations             = 13
Total CPU secs in IPOPT (w/o function evaluations)   =      0.023
Total CPU secs in NLP function evaluations           =      0.010

EXIT: Optimal Solution Found.

************************ CUTEst statistics ************************


 Package used            :  IPOPT
 Problem                 :  SIPOW4    
 # variables             =               4
 # constraints           =            2000
 # objective functions   =        0.3200000E+02
 # objective gradients   =        0.1500000E+02
 # objective Hessians    =        0.1400000E+02
 # Hessian-vector prdct  =        0.0000000E+00
 # constraints functions =        0.3300000E+02
 # constraints gradients =        0.1600000E+02
 # constraints Hessians  =        0.1400000E+02
 Exit code               =               0
 Final f                 =   0.2723620E+00
 Set up time             =            0.02 seconds
 Solve time              =            0.11 seconds


******************************************************************

System Time =       0.0270000007 s.
